inst=CIRC40
r=10
Compute TTP bound for CIRC40_10 with TimeLimit 21660
Save file as Instances/TTP/Bound_CIRC40_10.txt
Read TTP files
Instance: CIRC40, Type: A, Contributor: Easton, Nemhauser, Trick
Date: 0/0/2001
NrTeams = 40, NrRounds =  10
Set parameter TokenServer to value "licgurobi.ugent.be"
Set parameter Threads to value 8
Set parameter TimeLimit to value 21660
Gurobi Optimizer version 12.0.0 build v12.0.0rc1 (linux64 - "Red Hat Enterprise Linux 9.6 (Plow)")

CPU model: AMD EPYC 7552 48-Core Processor, instruction set [SSE2|AVX|AVX2]
Thread count: 96 physical cores, 96 logical processors, using up to 8 threads

Non-default parameters:
TimeLimit  21660
Threads  8

Optimize a model with 2500 rows, 1129480 columns and 3357280 nonzeros
Model fingerprint: 0x31229c57
Variable types: 0 continuous, 1129480 integer (1129480 binary)
Coefficient statistics:
  Matrix range     [1e+00, 1e+00]
  Objective range  [2e+00, 8e+01]
  Bounds range     [1e+00, 1e+00]
  RHS range        [1e+00, 5e+00]
Found heuristic solution: objective 4040.0000000
Presolve removed 80 rows and 731160 columns
Presolve time: 3.50s
Presolved: 2420 rows, 398320 columns, 1163760 nonzeros
Variable types: 0 continuous, 398320 integer (398320 binary)
Deterministic concurrent LP optimizer: primal simplex, dual simplex, and barrier
Showing barrier log only...

Root barrier log...

Ordering time: 0.00s

Barrier statistics:
 AA' NZ     : 2.100e+02
 Factor NZ  : 2.310e+02 (roughly 1 MB of memory)
 Factor Ops : 3.311e+03 (less than 1 second per iteration)
 Threads    : 1

                  Objective                Residual
Iter       Primal          Dual         Primal    Dual     Compl     Time
   0   6.63244428e+05 -9.05611323e+03  2.09e+01 0.00e+00  2.09e+02     4s
   1   1.71418752e+04 -8.11387667e+02  4.84e-01 1.82e-12  5.53e+00     4s

Barrier performed 1 iterations in 4.48 seconds (8.17 work units)
Barrier solve interrupted - model solved by another algorithm

Concurrent spin time: 0.18s (can be avoided by choosing Method=3)

Solved with dual simplex

Use crossover to convert LP symmetric solution to basic solution...

Root relaxation: objective 5.600000e+02, 735 iterations, 0.72 seconds (0.58 work units)
Total elapsed time = 5.38s (DegenMoves)

    Nodes    |    Current Node    |     Objective Bounds      |     Work
 Expl Unexpl |  Obj  Depth IntInf | Incumbent    BestBd   Gap | It/Node Time

     0     0  560.00000    0  497 4040.00000  560.00000  86.1%     -    6s
H    0     0                     782.0000000  560.00000  28.4%     -    7s
H    0     0                     758.0000000  560.00000  26.1%     -    7s
H    0     0                     754.0000000  560.00000  25.7%     -    7s
H    0     0                     752.0000000  560.00000  25.5%     -    7s
H    0     0                     646.0000000  560.00000  13.3%     -   11s
H    0     0                     628.0000000  560.00000  10.8%     -   13s
     0     0  560.00000    0  534  628.00000  560.00000  10.8%     -   19s
H    0     0                     624.0000000  560.00000  10.3%     -   28s
H    0     0                     620.0000000  560.00000  9.68%     -   30s
H    0     0                     560.0000000  560.00000  0.00%     -   36s
     0     0  560.00000    0  534  560.00000  560.00000  0.00%     -   36s

Cutting planes:
  Clique: 3
  Zero half: 26

Explored 1 nodes (11936 simplex iterations) in 36.39 seconds (40.50 work units)
Thread count was 8 (of 96 available processors)

Solution count 10: 560 620 624 ... 4040

Optimal solution found (tolerance 1.00e-04)
Best objective 5.600000000000e+02, best bound 5.600000000000e+02, gap 0.0000%

User-callback calls 9451, time in user-callback 0.00 sec
LB for instance CIRC40 with 10 = 560, UB = 560, gap = 0
